objective value:                                 2906
C0042                                               1 	(obj:635)
C0183                                               1 	(obj:18)
C0375                                               1 	(obj:554)
C0488                                               1 	(obj:211)
C0894                                               1 	(obj:461)
C1027                                               1 	(obj:98)
C1240                               0.999999999999998 	(obj:129)
C0001                                7.99999999999999 	(obj:100)
